
Gurobi 7.5.2 (linux64) logging started Sat Jul  7 16:00:04 2018

Changed value of parameter LogFile to result/ilp/simNo_4-n_100-m_40-s_4-minVAF_0.05-cov_10000-k_2-fn_0.05-fp_0.0001-na_0.15.ILP.gurobiSolverLog
   Prev: gurobi.log  Default: 
Changed value of parameter TimeLimit to 86400.0
   Prev: 1e+100  Min: 0.0  Max: 1e+100  Default: 1e+100
Optimize a model with 639293 rows, 10765 columns and 1940420 nonzeros
Variable types: 0 continuous, 10765 integer (10765 binary)
Coefficient statistics:
  Matrix range     [4e-04, 4e+00]
  Objective range  [1e-01, 9e+00]
  Bounds range     [1e+00, 1e+00]
  RHS range        [3e-01, 2e+00]
Found heuristic solution: objective -19801.16966
Presolve removed 125826 rows and 999 columns (presolve time = 6s) ...
Presolve removed 126380 rows and 999 columns (presolve time = 10s) ...
Presolve removed 181780 rows and 1553 columns (presolve time = 16s) ...
Presolve removed 181780 rows and 1553 columns
Presolve time: 15.82s
Presolved: 457513 rows, 9212 columns, 1375912 nonzeros
Variable types: 0 continuous, 9212 integer (9212 binary)
Presolved: 9212 rows, 466725 columns, 1385124 nonzeros

Presolve removed 9212 rows and 466725 columns

Root simplex log...

Iteration    Objective       Primal Inf.    Dual Inf.      Time
       0    7.4800989e+00   0.000000e+00   9.339500e+04     20s
    7561   -8.8322078e+01   0.000000e+00   4.318675e+05     20s
   27973   -2.2564959e+02   0.000000e+00   9.351000e+03     25s
   28959   -2.2537372e+02   0.000000e+00   0.000000e+00     26s
   28959   -2.2537372e+02   0.000000e+00   0.000000e+00     27s

Root relaxation: objective -2.253737e+02, 28959 iterations, 10.06 seconds
Total elapsed time = 100.29s
Total elapsed time = 238.54s
Total elapsed time = 299.14s

    Nodes    |    Current Node    |     Objective Bounds      |     Work
 Expl Unexpl |  Obj  Depth IntInf | Incumbent    BestBd   Gap | It/Node Time

     0     0 -225.37372    0  904 -19801.170 -225.37372  98.9%     -  307s
H    0     0                    -281.9843798 -225.37372  20.1%     -  311s
H    0     0                    -264.5657151 -225.37372  14.8%     -  315s
     0     0 -226.82527    0  928 -264.56572 -226.82527  14.3%     -  367s
H    0     0                    -261.6626043 -226.82527  13.3%     -  379s
     0     0 -226.82527    0  950 -261.66260 -226.82527  13.3%     -  395s
     0     0 -226.82527    0  952 -261.66260 -226.82527  13.3%     -  403s
     0     0 -229.72839    0  879 -261.66260 -229.72839  12.2%     - 1087s
     0     0 -232.63150    0  795 -261.66260 -232.63150  11.1%     - 1271s
     0     0 -234.08305    0  789 -261.66260 -234.08305  10.5%     - 1479s
     0     0 -234.08305    0  883 -261.66260 -234.08305  10.5%     - 1538s
     0     0 -234.08305    0  893 -261.66260 -234.08305  10.5%     - 1551s
     0     0 -236.50231    0  848 -261.66260 -236.50231  9.62%     - 3827s
     0     0 -236.50231    0  836 -261.66260 -236.50231  9.62%     - 3837s
     0     0 -236.98616    0  783 -261.66260 -236.98616  9.43%     - 3864s
     0     0 -236.98616    0  790 -261.66260 -236.98616  9.43%     - 3876s
     0     0 -236.98616    0  871 -261.66260 -236.98616  9.43%     - 3898s
     0     0 -236.98616    0  872 -261.66260 -236.98616  9.43%     - 3907s
     0     0 -236.98616    0  735 -261.66260 -236.98616  9.43%     - 5016s
     0     0 -236.98616    0  760 -261.66260 -236.98616  9.43%     - 5031s
     0     0 -238.43772    0  767 -261.66260 -238.43772  8.88%     - 5923s
     0     0 -238.43772    0  770 -261.66260 -238.43772  8.88%     - 5930s
     0     0 -239.88927    0  715 -261.66260 -239.88927  8.32%     - 8850s
     0     0 -239.88927    0  770 -261.66260 -239.88927  8.32%     - 8879s
     0     0 -240.61505    0  713 -261.66260 -240.61505  8.04%     - 9665s
     0     0 -240.61505    0  699 -261.66260 -240.61505  8.04%     - 9673s
     0     0 -240.61505    0  733 -261.66260 -240.61505  8.04%     - 9840s
     0     0 -240.61505    0  881 -261.66260 -240.61505  8.04%     - 9880s
     0     0 -242.06661    0  856 -261.66260 -242.06661  7.49%     - 31553s
     0     0 -242.06661    0  855 -261.66260 -242.06661  7.49%     - 31573s
     0     0 -242.06661    0  864 -261.66260 -242.06661  7.49%     - 31598s
     0     0 -242.06661    0  714 -261.66260 -242.06661  7.49%     - 31614s
     0     0 -242.55046    0  846 -261.66260 -242.55046  7.30%     - 33060s
     0     0 -242.55046    0  853 -261.66260 -242.55046  7.30%     - 33066s
     0     0 -242.79238    0  841 -261.66260 -242.79238  7.21%     - 33113s
     0     0 -243.51816    0  851 -261.66260 -243.51816  6.93%     - 33392s
     0     0 -244.96972    0  865 -261.66260 -244.96972  6.38%     - 34459s
     0     0 -244.96972    0  936 -261.66260 -244.96972  6.38%     - 34486s
     0     0 -244.96972    0  905 -261.66260 -244.96972  6.38%     - 34503s
     0     0 -245.36560    0  967 -261.66260 -245.36560  6.23%     - 34631s
     0     0 -245.36560    0  967 -261.66260 -245.36560  6.23%     - 34634s
     0     0 -245.69549    0  743 -261.66260 -245.69549  6.10%     - 35921s
     0     0 -246.20354    0  917 -261.66260 -246.20354  5.91%     - 36199s
     0     0 -246.27612    0  930 -261.66260 -246.27612  5.88%     - 36230s
     0     0 -246.42127    0  945 -261.66260 -246.42127  5.82%     - 36269s
     0     0 -246.42127    0  941 -261.66260 -246.42127  5.82%     - 36276s
     0     0 -246.71158    0  929 -261.66260 -246.71158  5.71%     - 36991s
     0     0 -246.78416    0  942 -261.66260 -246.78416  5.69%     - 37049s
     0     0 -247.14705    0  923 -261.66260 -247.14705  5.55%     - 37151s
     0     0 -247.14705    0  929 -261.66260 -247.14705  5.55%     - 37160s
     0     0 -247.14705    0  949 -261.66260 -247.14705  5.55%     - 37177s
     0     0 -247.22769    0  949 -261.66260 -247.22769  5.52%     - 37261s
     0     0 -247.25073    0  954 -261.66260 -247.25073  5.51%     - 37294s
     0     0 -247.25073    0  954 -261.66260 -247.25073  5.51%     - 37298s
     0     0 -247.97651    0  732 -261.66260 -247.97651  5.23%     - 37491s
     0     0 -247.97651    0  742 -261.66260 -247.97651  5.23%     - 37511s
     0     0 -247.97651    0  729 -261.66260 -247.97651  5.23%     - 37526s
     0     0 -247.97651    0  726 -261.66260 -247.97651  5.23%     - 37545s
     0     0 -247.97651    0  638 -261.66260 -247.97651  5.23%     - 38494s
     0     0 -247.97651    0  660 -261.66260 -247.97651  5.23%     - 38503s
     0     0 -247.97651    0  659 -261.66260 -247.97651  5.23%     - 38843s
     0     0 -247.97651    0  659 -261.66260 -247.97651  5.23%     - 39308s
     0     2 -247.97651    0  659 -261.66260 -247.97651  5.23%     - 40084s
     1     3 -248.59861    1  550 -261.66260 -247.97651  5.23% 12848 40102s
     2     4 -249.56631    2  587 -261.66260 -247.97651  5.23%  7164 40116s
     3     5 -250.05016    3  503 -261.66260 -247.97651  5.23%  4900 40122s
     4     4     cutoff    3      -261.66260 -247.97651  5.23%  8786 40405s
     5     5 -251.01786    4  568 -261.66260 -247.97651  5.23%  7301 40413s
     6     6 -251.32027    5  542 -261.66260 -247.97651  5.23%  6177 40419s
     7     5     cutoff    5      -261.66260 -247.97651  5.23%  8078 40658s
     8     6 -252.42543    6  538 -261.66260 -247.97651  5.23%  7124 40683s
     9     7 -252.95327    7  409 -261.66260 -247.97651  5.23%  6347 40690s
    10     6     cutoff    7      -261.66260 -247.97651  5.23%  6262 40744s
    11     7 -254.40483    8  356 -261.66260 -247.97651  5.23%  5705 40748s
    12     8 -255.85638    9  273 -261.66260 -247.97651  5.23%  5258 40751s
    14    10 -258.75949   11  176 -261.66260 -247.97651  5.23%  4552 40757s
    17     7     cutoff   11      -261.66260 -247.97651  5.23%  3799 40762s
    18     8 -257.30794    1  245 -261.66260 -248.59861  4.99%  4420 40997s
    19     9 -258.75949    2  208 -261.66260 -248.59861  4.99%  4222 41005s
    20    10 -260.21105    3  202 -261.66260 -248.59861  4.99%  4032 41010s
    24     6     cutoff    2      -261.66260 -248.59861  4.99%  3567 41081s
    25     5     cutoff    2      -261.66260 -250.05016  4.44%  4307 41422s
    26     4     cutoff    4      -261.66260 -251.34199  3.94%  5114 41775s
    27     3     cutoff    6      -261.66260 -252.97721  3.32%  5147 41842s
    28     2     cutoff    8      -261.66260 -254.40483  2.77%  5077 41865s
    29     3 -255.85638    9  451 -261.66260 -255.85638  2.22%  4923 41870s
    31     3     cutoff   11      -261.66260 -255.85638  2.22%  4626 41876s
    32     4 -257.79179   11  380 -261.66260 -255.85638  2.22%  4483 41890s
    36     6 -260.21105   14   98 -261.66260 -255.85638  2.22%  3996 41897s
    40     2     cutoff   13      -261.66260 -255.85638  2.22%  3613 41900s
    41     3 -258.75949   10  261 -261.66260 -255.85638  2.22%  3575 41915s
    43     3     cutoff   12      -261.66260 -255.85638  2.22%  3420 41921s
    44     4 -260.21105   12  242 -261.66260 -255.85638  2.22%  3353 41927s
    48     2 -258.75949   10  365 -261.66260 -258.75949  1.11%  3092 41946s
    50     4 -260.21105   12  296 -261.66260 -258.75949  1.11%  2974 41950s

Cutting planes:
  Zero half: 109

Explored 59 nodes (1398872 simplex iterations) in 41954.37 seconds
Thread count was 1 (of 80 available processors)

Solution count 4: -261.663 -264.566 -281.984 -19801.2 

Optimal solution found (tolerance 1.00e-04)
Best objective -2.616626043027e+02, best bound -2.616626043027e+02, gap 0.0000%
